c partition 1 of 3
p cnf 24 16
-19 15 11 -2 0
-3 21 12 4 0
-6 21 8 17 0
-5 24 -8 -17 0
3 -7 24 8 0
8 20 -3 -17 0
-11 14 3 -19 0
-21 23 -10 -2 0
-18 -11 -15 -2 0
4 -14 7 19 0
-5 19 -3 -16 0
-12 1 -7 14 0
4 -7 -10 23 0
21 2 -14 -24 0
-14 16 13 -1 0
19 4 1 15 0
